num_images = 30;
universe = 475;
images = [{1, 3, 5, 7, 9, 11, 13, 15, 17, 19, 21, 22, 23, 24, 25, 26, 27, 28, 29, 30, 32, 34, 433, 434, 435, 436, 444, 345, 475}, {265, 266, 267, 268, 269, 142, 143, 144, 145, 146, 147, 148, 149, 270, 271, 272, 398, 36, 38, 40, 42, 44, 46, 48, 50, 52, 54, 56, 58, 60, 62, 63, 64, 65, 66, 67, 68, 69, 455, 72, 74, 76, 78, 80, 464, 82, 211, 84, 212, 86, 213, 88, 214, 90, 215, 92, 216, 94, 217, 96, 218, 98, 99, 371, 372, 373, 374, 375}, {66, 67, 68, 71, 72, 73}, {36, 37, 38, 39, 40, 41, 96, 97, 100, 102, 104, 106, 108, 110, 112, 114, 116, 118, 120, 122, 124, 126, 128, 130, 132, 134, 136, 138, 140, 142, 144, 145, 146, 148, 150, 152, 154, 156, 158, 160, 162, 164, 166, 168, 170, 172, 174, 176, 178, 180, 182, 210, 246, 247, 252, 253, 254, 255, 285, 286, 295, 296, 297, 298, 299, 300, 301, 302, 303, 304, 305, 306, 307, 308, 309, 310, 343, 352, 353, 354, 355, 356, 357, 358, 359, 360, 397, 462}, {36, 37, 38, 39, 88, 89, 90, 91, 92, 93, 94, 95, 96, 97, 104, 105, 106, 107, 108, 109, 110, 111, 112, 113, 114, 115, 116, 117, 118, 119, 120, 121, 122, 123, 124, 125, 126, 127, 128, 129, 130, 131, 132, 133, 134, 135, 146, 147, 148, 149, 150, 151, 152, 153, 154, 155, 156, 157, 158, 159, 160, 161, 162, 163, 164, 165, 166, 167, 168, 169, 170, 171, 172, 173, 174, 175, 176, 177, 184, 186, 188, 190, 192, 194, 196, 198, 200, 202, 204, 206, 210, 211, 213, 215, 217, 219, 221, 223, 225, 227, 229, 231, 233, 235, 237, 239, 241, 243, 245, 246, 248, 250, 252, 253, 254, 255, 280, 281, 282, 283, 284, 285, 286, 287, 288, 295, 296, 297, 298, 299, 300, 301, 302, 303, 304, 305, 306, 307, 308, 309, 310, 311, 312, 313, 314, 343, 348, 349, 350, 351, 352, 353, 354, 355, 356, 357, 358, 359, 360, 366, 367, 368, 369, 370, 375, 376, 377, 378, 379, 380, 381, 382, 383, 384, 385, 386, 387, 391, 392, 393, 394, 395, 396, 397, 398, 399, 400, 401, 402, 403, 404, 462}, {36, 37, 38, 39, 40, 41, 42, 43, 44, 45, 46, 47, 48, 49, 50, 51, 52, 53, 84, 85, 86, 87, 88, 89, 90, 91, 92, 93, 94, 95, 96, 97, 128, 129, 130, 131, 132, 133, 134, 135, 136, 137, 138, 139, 140, 141, 142, 143, 144, 145, 146, 147, 148, 149, 150, 151, 152, 153, 154, 155, 156, 157, 158, 159, 160, 161, 162, 163, 176, 177, 178, 179, 180, 181, 204, 205, 206, 207, 208, 209, 210, 211, 212, 213, 214, 215, 216, 217, 218, 219, 220, 221, 222, 223, 224, 225, 226, 227, 228, 229, 230, 243, 244, 245, 252, 254, 257, 259, 261, 263, 265, 267, 269, 271, 273, 275, 277, 280, 281, 283, 285, 286, 287, 289, 290, 292, 295, 297, 299, 301, 303, 305, 307, 309, 310, 338, 339, 340, 341, 342, 343, 352, 353, 354, 355, 356, 357, 358, 359, 360, 361, 362, 363, 364, 365, 371, 372, 373, 374, 375, 376, 377, 378, 379, 380, 381, 382, 383, 384, 385, 386, 397, 398, 399, 400, 401, 402, 403, 404, 455, 462}, {118, 119, 120, 121, 122, 123, 124, 125, 126, 127, 128, 129, 130, 131, 132, 133, 198, 199, 200, 201, 202, 203, 204, 205, 206, 207, 208, 209, 252, 253, 254, 255, 256, 257, 258, 259, 260, 261, 262, 307, 308, 309, 310, 311, 313, 315, 317, 319, 321, 323, 325, 326, 328, 330, 331, 332, 334, 336, 339, 343, 396, 397, 418, 419, 420, 422, 423, 424, 425, 426, 427, 428, 429, 430, 431, 432, 452, 453, 454, 469, 470, 471, 472, 473}, {13, 14, 15, 16, 17, 18, 19, 20, 21, 22, 23, 36, 37, 38, 39, 40, 41, 42, 43, 44, 45, 46, 47, 48, 49, 50, 51, 52, 53, 54, 55, 56, 57, 58, 59, 60, 61, 62, 63, 64, 65, 66, 67, 68, 69, 70, 71, 72, 73, 74, 75, 76, 77, 78, 79, 80, 81, 82, 83, 84, 85, 86, 87, 88, 89, 90, 91, 92, 93, 94, 95, 96, 97, 98, 99, 140, 141, 142, 143, 144, 145, 146, 147, 148, 149, 150, 151, 152, 153, 154, 155, 156, 157, 158, 159, 160, 161, 162, 163, 164, 165, 166, 167, 168, 169, 170, 171, 211, 212, 213, 214, 215, 216, 217, 218, 219, 220, 221, 222, 223, 224, 225, 226, 227, 228, 229, 230, 231, 232, 233, 234, 235, 236, 265, 266, 267, 268, 269, 270, 271, 272, 273, 274, 275, 276, 277, 278, 279, 280, 281, 282, 283, 284, 285, 344, 345, 346, 347, 348, 350, 352, 354, 355, 356, 358, 360, 361, 362, 363, 371, 372, 373, 374, 375, 376, 377, 378, 379, 380, 381, 382, 383, 384, 385, 386, 398, 399, 400, 401, 402, 403, 404, 405, 406, 407, 408, 409, 410, 421, 440, 441, 442, 443, 455, 456, 457, 458, 459, 460, 461, 464, 468, 475}, {36, 37, 38, 39, 40, 41, 42, 43, 44, 45, 46, 47, 90, 91, 92, 93, 94, 95, 96, 97, 102, 103, 104, 105, 106, 107, 108, 109, 110, 111, 112, 113, 114, 115, 116, 117, 118, 119, 120, 121, 122, 123, 124, 125, 126, 127, 128, 129, 130, 131, 132, 133, 134, 135, 136, 137, 138, 139, 140, 141, 142, 143, 144, 145, 146, 147, 148, 149, 150, 151, 152, 153, 154, 155, 156, 157, 158, 159, 160, 161, 162, 163, 164, 165, 166, 167, 168, 169, 170, 171, 172, 173, 174, 175, 176, 177, 178, 179, 208, 209, 210, 211, 212, 213, 214, 233, 246, 247, 248, 249, 250, 251, 252, 253, 254, 255, 281, 282, 283, 284, 285, 286, 287, 288, 295, 296, 297, 298, 299, 300, 301, 302, 303, 304, 305, 306, 307, 308, 309, 310, 311, 312, 313, 314, 342, 343, 348, 349, 350, 351, 352, 353, 354, 355, 356, 357, 358, 359, 360, 361, 362, 366, 367, 368, 369, 370, 371, 372, 375, 376, 377, 379, 381, 383, 385, 387, 391, 392, 393, 394, 395, 396, 397, 398, 399, 400, 401, 402, 403, 404, 455, 462}, {36, 37, 38, 39, 40, 41, 42, 43, 44, 45, 92, 93, 94, 95, 96, 97, 100, 101, 102, 103, 104, 105, 106, 107, 108, 109, 110, 111, 112, 113, 114, 115, 116, 117, 118, 119, 120, 121, 132, 133, 134, 135, 136, 137, 138, 139, 140, 141, 142, 143, 144, 145, 146, 147, 148, 149, 150, 151, 152, 153, 154, 155, 156, 157, 158, 159, 160, 161, 162, 163, 164, 165, 170, 171, 172, 173, 174, 175, 176, 177, 178, 179, 180, 181, 182, 183, 209, 210, 211, 212, 241, 242, 243, 244, 245, 246, 247, 248, 249, 252, 253, 283, 284, 285, 286, 287, 288, 292, 293, 294, 295, 296, 297, 298, 299, 300, 301, 302, 303, 304, 305, 306, 307, 308, 309, 310, 311, 312, 343, 350, 351, 352, 353, 354, 355, 356, 357, 358, 359, 360, 361, 372, 373, 374, 388, 389, 391, 392, 393, 394, 395, 396, 398, 399, 400, 401, 402, 403, 404, 455, 462}, {395, 399, 400, 273, 274, 405, 150, 151, 152, 153, 407, 409, 411, 413, 415, 421, 303, 304, 305, 306, 307, 308, 309, 310, 311, 312, 313, 314, 315, 316, 317, 318, 319, 320, 321, 194, 195, 196, 197, 198, 199, 322, 219, 220, 376, 358, 359, 360, 114, 115, 116, 117, 118, 119, 370, 377, 378}, {422, 423, 328, 329, 424, 425, 426, 428, 430, 454, 432}, {5, 6, 7, 8, 9, 10, 11, 12, 13, 14, 15, 16, 100, 101, 102, 103, 104, 105, 106, 107, 108, 109, 110, 111, 112, 113, 114, 115, 152, 153, 154, 155, 156, 157, 158, 159, 160, 161, 162, 163, 164, 165, 166, 167, 168, 169, 170, 171, 172, 173, 174, 175, 176, 177, 178, 179, 180, 181, 182, 183, 184, 185, 186, 187, 188, 189, 190, 191, 192, 193, 194, 195, 233, 234, 235, 236, 237, 238, 239, 240, 241, 242, 243, 244, 245, 246, 247, 248, 249, 250, 251, 280, 281, 282, 283, 284, 285, 286, 287, 288, 289, 290, 291, 292, 293, 294, 295, 296, 297, 298, 299, 300, 301, 302, 303, 304, 346, 347, 348, 349, 350, 351, 352, 353, 354, 355, 356, 357, 358, 359, 366, 367, 368, 369, 370, 377, 378, 379, 380, 381, 382, 383, 384, 385, 386, 387, 388, 389, 390, 391, 392, 393, 394, 395, 400, 401, 402, 403, 404, 411, 412, 413, 414, 415, 416, 433, 434, 437, 438, 440, 442, 444, 445, 446, 447, 448, 449, 450, 451, 456, 457, 458, 461, 462, 463}, {36, 37, 38, 39, 40, 41, 42, 43, 44, 45, 46, 47, 48, 49, 50, 51, 52, 53, 54, 55, 56, 57, 58, 59, 100, 101, 102, 103, 104, 105, 106, 107, 108, 109, 110, 111, 112, 113, 114, 115, 116, 117, 118, 119, 120, 121, 122, 123, 124, 125, 126, 127, 128, 129, 130, 131, 132, 133, 134, 135, 136, 137, 138, 139, 140, 141, 168, 169, 170, 171, 172, 173, 174, 175, 176, 177, 178, 179, 180, 181, 182, 183, 184, 185, 186, 187, 188, 189, 190, 191, 192, 193, 194, 195, 196, 197, 198, 199, 200, 201, 202, 203, 204, 205, 206, 207, 208, 209, 210, 235, 236, 237, 238, 239, 240, 241, 242, 243, 244, 245, 246, 247, 248, 249, 250, 251, 252, 253, 254, 255, 256, 257, 258, 259, 260, 261, 262, 263, 264, 285, 286, 287, 288, 289, 290, 291, 292, 293, 294, 295, 296, 297, 298, 299, 300, 301, 302, 303, 304, 305, 306, 307, 308, 309, 310, 311, 312, 313, 314, 315, 316, 334, 335, 336, 337, 338, 339, 340, 341, 342, 343, 346, 347, 348, 349, 350, 351, 352, 353, 354, 355, 356, 357, 358, 359, 360, 361, 362, 363, 364, 365, 366, 367, 368, 369, 370, 371, 372, 373, 387, 388, 389, 390, 391, 392, 393, 394, 395, 396, 397, 411, 412, 420, 424, 425, 426, 427, 428, 429, 430, 431, 445, 446, 448, 450, 452, 454, 456, 457, 458, 461, 462, 463, 469, 470, 471, 472, 473}, {36, 37, 72, 73, 74, 75, 76, 77, 78, 79, 80, 81, 82, 83, 84, 85, 86, 87, 88, 89, 90, 91, 92, 93, 94, 95, 96, 97, 110, 111, 112, 113, 114, 115, 116, 117, 118, 119, 120, 121, 122, 123, 124, 125, 126, 127, 128, 129, 130, 131, 132, 133, 134, 135, 136, 137, 138, 139, 140, 141, 150, 151, 152, 153, 154, 155, 156, 157, 158, 159, 160, 161, 162, 163, 164, 165, 166, 167, 168, 169, 170, 171, 172, 173, 190, 191, 192, 193, 194, 195, 196, 197, 198, 199, 200, 201, 202, 203, 204, 205, 206, 207, 208, 209, 210, 219, 220, 221, 222, 223, 224, 225, 226, 227, 228, 229, 230, 231, 232, 233, 234, 235, 236, 237, 238, 252, 253, 254, 255, 256, 257, 258, 259, 260, 273, 274, 275, 276, 277, 278, 279, 280, 281, 282, 283, 284, 285, 286, 299, 300, 301, 302, 303, 304, 305, 306, 307, 308, 309, 310, 311, 312, 313, 314, 315, 316, 317, 318, 319, 320, 321, 322, 323, 324, 338, 339, 340, 341, 342, 343, 348, 349, 350, 351, 352, 353, 354, 355, 356, 357, 358, 359, 360, 361, 362, 363, 368, 369, 370, 376, 377, 378, 379, 380, 381, 382, 383, 384, 385, 386, 393, 394, 395, 396, 397, 399, 400, 401, 402, 403, 404, 405, 406, 407, 408, 409, 410, 411, 412, 413, 414, 415, 416, 417, 418, 419, 420, 421, 426, 427, 428, 429, 430, 431, 432, 440, 441, 442, 443, 452, 453, 456, 457, 459, 460, 462, 463, 468, 469, 470, 471, 472, 473}, {1, 2, 3, 4, 5, 6, 7, 8, 9, 10, 11, 12, 13, 14, 15, 16, 17, 18, 19, 20, 21, 22, 23, 24, 25, 26, 27, 28, 29, 30, 31, 32, 33, 34, 35, 36, 37, 38, 39, 40, 41, 42, 43, 44, 45, 46, 47, 48, 49, 50, 51, 52, 53, 54, 55, 56, 57, 58, 59, 60, 61, 62, 76, 77, 78, 79, 80, 81, 82, 83, 84, 85, 86, 87, 88, 89, 90, 91, 92, 93, 94, 95, 96, 97, 100, 101, 102, 103, 104, 105, 106, 107, 108, 109, 110, 111, 112, 113, 114, 115, 116, 117, 118, 119, 120, 121, 122, 123, 124, 125, 126, 127, 128, 129, 130, 131, 132, 133, 134, 135, 136, 137, 138, 139, 140, 141, 142, 143, 144, 145, 146, 147, 148, 149, 150, 151, 152, 153, 154, 155, 156, 157, 158, 159, 160, 161, 162, 163, 164, 165, 166, 167, 168, 169, 170, 171, 172, 173, 174, 175, 176, 177, 178, 179, 180, 181, 182, 183, 184, 185, 186, 187, 188, 189, 190, 191, 192, 193, 194, 195, 196, 197, 198, 199, 200, 201, 202, 203, 204, 205, 206, 207, 208, 209, 210, 211, 212, 213, 214, 215, 216, 217, 218, 219, 220, 221, 222, 223, 224, 225, 226, 227, 228, 229, 230, 231, 232, 233, 234, 235, 236, 237, 238, 239, 240, 241, 242, 243, 244, 245, 246, 247, 248, 249, 250, 251, 252, 253, 254, 255, 256, 257, 258, 259, 260, 261, 262, 263, 264, 265, 266, 267, 268, 269, 270, 271, 272, 273, 274, 275, 276, 277, 278, 279, 280, 281, 282, 283, 284, 285, 286, 287, 288, 289, 290, 291, 292, 293, 294, 295, 296, 297, 298, 299, 300, 301, 302, 303, 304, 305, 306, 307, 308, 309, 310, 311, 312, 313, 314, 315, 316, 317, 318, 319, 320, 321, 322, 323, 324, 325, 331, 332, 333, 334, 335, 336, 337, 338, 339, 340, 341, 342, 343, 345, 346, 347, 348, 349, 350, 351, 352, 353, 354, 355, 356, 357, 358, 359, 360, 361, 362, 363, 364, 365, 366, 367, 368, 369, 370, 371, 372, 373, 374, 375, 376, 377, 378, 379, 380, 381, 382, 383, 384, 385, 386, 387, 388, 389, 390, 391, 392, 393, 394, 395, 396, 397, 398, 399, 400, 401, 402, 403, 404, 405, 406, 407, 408, 409, 410, 411, 412, 413, 414, 415, 416, 417, 418, 419, 420, 422, 423, 424, 425, 426, 427, 428, 429, 430, 431, 432, 433, 434, 435, 436, 437, 438, 439, 440, 441, 442, 443, 444, 445, 446, 447, 448, 449, 450, 451, 452, 453, 454, 455, 456, 457, 458, 460, 461, 462, 463, 464, 468, 469, 470, 471, 472, 473, 475}, {15, 16, 17, 18, 19, 20, 21, 22, 440, 441, 442, 443, 456, 457, 458, 459, 460, 461, 344, 475}, {36, 37, 38, 39, 40, 41, 42, 43, 44, 45, 46, 47, 48, 49, 82, 83, 84, 85, 86, 87, 88, 89, 90, 91, 92, 93, 94, 95, 96, 97, 100, 101, 102, 103, 104, 105, 106, 107, 108, 109, 110, 111, 112, 113, 114, 115, 116, 117, 118, 119, 120, 121, 122, 123, 124, 125, 126, 127, 128, 129, 130, 131, 132, 133, 134, 135, 136, 137, 138, 139, 140, 141, 142, 143, 148, 149, 150, 151, 152, 153, 154, 155, 156, 157, 158, 159, 160, 161, 162, 163, 164, 165, 166, 167, 168, 169, 170, 171, 172, 173, 174, 175, 176, 177, 178, 179, 180, 181, 182, 183, 184, 185, 186, 187, 188, 189, 190, 191, 192, 193, 194, 195, 196, 197, 198, 199, 200, 201, 202, 203, 204, 205, 206, 207, 208, 209, 210, 217, 218, 219, 220, 221, 222, 223, 224, 225, 226, 227, 228, 229, 230, 231, 232, 233, 234, 235, 236, 237, 238, 239, 240, 241, 242, 243, 244, 245, 246, 247, 248, 249, 250, 251, 252, 253, 254, 255, 256, 257, 258, 271, 272, 273, 274, 275, 276, 277, 278, 279, 280, 281, 282, 283, 284, 285, 286, 287, 288, 289, 294, 295, 296, 297, 298, 299, 300, 301, 302, 303, 304, 305, 306, 307, 308, 309, 310, 311, 312, 313, 314, 341, 342, 343, 347, 348, 349, 350, 351, 352, 353, 354, 355, 356, 357, 358, 359, 360, 361, 362, 363, 364, 366, 367, 368, 369, 370, 375, 376, 377, 378, 379, 380, 381, 382, 383, 384, 385, 386, 387, 388, 391, 392, 393, 394, 395, 396, 397, 398, 399, 400, 401, 402, 403, 404, 440, 441, 455, 456, 461, 462, 469, 470, 471, 472, 473}, {433, 465, 444, 28, 29, 30, 31}, {36, 37, 38, 39, 40, 41, 42, 43, 44, 45, 46, 47, 48, 49, 50, 51, 52, 53, 54, 55, 56, 57, 80, 81, 82, 83, 84, 85, 86, 87, 88, 89, 90, 91, 92, 93, 94, 95, 96, 97, 130, 131, 132, 133, 134, 135, 136, 137, 138, 139, 140, 141, 142, 143, 144, 145, 146, 147, 148, 149, 150, 151, 152, 153, 154, 155, 206, 207, 208, 209, 210, 211, 212, 213, 214, 215, 216, 217, 218, 219, 220, 221, 222, 256, 257, 258, 259, 260, 261, 262, 263, 264, 265, 266, 267, 268, 269, 270, 271, 272, 273, 274, 275, 276, 309, 310, 336, 337, 338, 339, 340, 341, 342, 343, 356, 357, 358, 359, 360, 361, 362, 363, 364, 365, 371, 372, 373, 374, 375, 376, 377, 378, 379, 380, 397, 398, 399, 400, 401, 409, 410, 425, 426, 427, 455, 472}, {64, 65, 66, 62, 63}, {64, 99, 66, 67}, {1, 2, 3, 4, 5, 6, 7, 8, 9, 10, 26, 27, 28, 29, 30, 31, 32, 33, 34, 35, 100, 101, 102, 103, 104, 105, 106, 107, 108, 109, 110, 111, 112, 113, 114, 115, 116, 117, 118, 119, 120, 121, 122, 123, 124, 125, 184, 185, 186, 187, 188, 189, 190, 191, 192, 193, 194, 195, 196, 197, 198, 199, 200, 201, 248, 249, 250, 251, 311, 312, 313, 314, 315, 316, 317, 318, 319, 320, 321, 322, 323, 324, 325, 326, 327, 328, 329, 330, 331, 366, 367, 368, 369, 370, 388, 389, 390, 391, 392, 393, 394, 395, 396, 411, 412, 413, 414, 415, 416, 417, 418, 419, 420, 422, 430, 431, 432, 433, 434, 435, 436, 437, 438, 439, 444, 445, 446, 447, 448, 449, 450, 451, 452, 453, 454, 463, 465, 466, 467, 469, 470, 474}, {36, 37, 38, 39, 40, 41, 42, 43, 44, 45, 46, 47, 48, 49, 50, 51, 52, 53, 54, 55, 86, 87, 88, 89, 90, 91, 92, 93, 94, 95, 96, 97, 106, 107, 108, 109, 110, 111, 112, 113, 114, 115, 116, 117, 118, 119, 120, 121, 122, 123, 124, 125, 126, 127, 128, 129, 130, 131, 132, 133, 134, 135, 136, 137, 138, 139, 140, 141, 142, 143, 144, 145, 146, 147, 148, 149, 150, 151, 152, 153, 154, 155, 156, 157, 158, 159, 186, 187, 188, 189, 190, 191, 192, 193, 194, 195, 196, 197, 198, 199, 200, 201, 202, 203, 204, 205, 206, 207, 208, 209, 210, 211, 212, 213, 214, 215, 216, 217, 218, 219, 220, 221, 222, 223, 224, 225, 226, 252, 253, 254, 255, 256, 257, 258, 259, 260, 261, 262, 263, 264, 265, 266, 268, 295, 296, 297, 298, 299, 300, 301, 302, 303, 304, 305, 306, 307, 308, 309, 310, 311, 312, 313, 314, 315, 316, 317, 318, 338, 339, 340, 341, 342, 343, 354, 355, 356, 357, 358, 359, 360, 361, 362, 363, 364, 365, 366, 367, 368, 369, 370, 371, 372, 373, 374, 375, 376, 377, 378, 379, 380, 381, 382, 383, 384, 391, 392, 393, 394, 395, 396, 397, 398, 399, 400, 401, 402, 403, 411, 412, 413, 414, 419, 420, 446, 447, 448, 449, 450, 451, 452, 453, 455, 462, 463, 469, 473}, {32, 33, 433, 434, 435, 465, 466, 474, 29, 30, 31}, {3, 4, 5, 6, 7, 8, 9, 10, 11, 12, 13, 14, 15, 16, 17, 18, 21, 22, 23, 24, 25, 26, 27, 28, 29, 100, 101, 102, 103, 104, 105, 106, 107, 162, 163, 164, 165, 166, 167, 168, 169, 170, 171, 172, 173, 174, 175, 176, 177, 178, 179, 180, 181, 182, 183, 184, 185, 186, 187, 229, 230, 231, 232, 233, 234, 235, 236, 237, 238, 239, 240, 241, 242, 243, 244, 245, 246, 247, 248, 249, 250, 251, 280, 281, 282, 283, 284, 285, 286, 287, 288, 289, 290, 291, 292, 293, 294, 295, 296, 345, 346, 347, 348, 349, 350, 351, 366, 387, 388, 389, 390, 391, 433, 434, 435, 436, 440, 441, 442, 443, 444, 445, 446, 447, 456, 457, 458, 461, 462, 468}, {36, 37, 38, 39, 40, 41, 42, 43, 44, 45, 46, 47, 48, 49, 50, 51, 78, 79, 80, 81, 82, 83, 84, 85, 86, 87, 88, 89, 90, 91, 92, 93, 94, 95, 96, 97, 112, 113, 114, 115, 116, 117, 118, 119, 120, 121, 122, 123, 124, 125, 126, 127, 128, 129, 130, 131, 132, 133, 134, 135, 136, 137, 138, 139, 140, 141, 142, 143, 144, 145, 146, 147, 148, 149, 150, 151, 152, 153, 154, 155, 156, 157, 192, 193, 194, 195, 196, 197, 198, 199, 200, 201, 202, 203, 204, 205, 206, 207, 208, 209, 210, 211, 212, 213, 214, 215, 216, 217, 218, 219, 220, 221, 222, 223, 224, 252, 253, 254, 255, 256, 269, 270, 271, 272, 273, 274, 275, 276, 277, 278, 301, 302, 303, 304, 305, 306, 307, 308, 309, 310, 311, 312, 313, 314, 315, 316, 317, 318, 319, 320, 339, 340, 341, 342, 343, 355, 356, 357, 358, 359, 360, 361, 362, 363, 364, 365, 369, 370, 371, 372, 373, 374, 375, 376, 377, 378, 379, 380, 381, 382, 394, 395, 396, 397, 398, 399, 400, 401, 402, 407, 408, 409, 410, 411, 412, 413, 414, 415, 416, 417, 418, 419, 420, 438, 439, 450, 451, 455, 464}, {36, 37, 38, 39, 40, 41, 42, 43, 94, 95, 96, 97, 100, 101, 102, 103, 104, 105, 106, 107, 108, 109, 110, 111, 112, 113, 114, 115, 116, 117, 118, 119, 120, 121, 122, 123, 138, 139, 140, 141, 142, 143, 144, 145, 146, 147, 148, 149, 150, 151, 152, 153, 154, 155, 156, 157, 158, 159, 160, 161, 162, 163, 164, 165, 166, 167, 168, 169, 170, 171, 172, 173, 174, 175, 176, 177, 178, 179, 180, 181, 182, 183, 210, 245, 246, 247, 252, 253, 254, 255, 285, 286, 295, 296, 297, 298, 299, 300, 301, 302, 303, 304, 305, 306, 307, 308, 309, 310, 343, 352, 353, 354, 355, 356, 357, 358, 359, 360, 397, 462}, {24, 475, 22, 23}, {7, 8, 27, 28, 29, 30, 31, 32, 33, 34, 35, 433, 434, 435, 436, 444, 445, 465, 466, 467}];
costs = [225250, 399000, 217314, 372600, 410400, 397800, 552300, 853920, 385200, 376200, 151370, 374400, 303300, 588276, 423160, 1067810, 210930, 450000, 148970, 376200, 230680, 329400, 747810, 455400, 149830, 288580, 250240, 374400, 120600, 161650];
clouds = [{}, {67, 40, 267, 142, 271, 80, 272, 50, 82, 84, 373, 54, 92}, {}, {36, 37, 38, 39, 40, 41, 96, 97, 100, 102, 104, 106, 108, 110, 112, 114, 116, 118, 120, 122, 124, 126, 128, 130, 132, 134, 136, 138, 142, 144, 145, 146, 148, 150, 152, 154, 156, 158, 160, 162, 164, 166, 168, 170, 172, 174, 176, 178, 180, 182, 210, 246, 247, 252, 253, 254, 255, 285, 286, 295, 296, 297, 298, 299, 300, 301, 302, 303, 304, 305, 306, 307, 308, 309, 310, 352, 353, 354, 355, 356, 357, 358, 359, 360, 397, 462}, {36, 37, 38, 89, 90, 91, 92, 93, 94, 95, 96, 97, 104, 105, 106, 107, 108, 109, 111, 112, 113, 114, 115, 118, 119, 120, 121, 122, 123, 124, 125, 126, 127, 128, 129, 130, 131, 132, 133, 134, 135, 146, 147, 148, 149, 150, 151, 152, 153, 154, 155, 156, 157, 158, 159, 160, 162, 163, 164, 165, 166, 167, 168, 170, 171, 172, 173, 174, 175, 176, 177, 184, 186, 188, 190, 192, 194, 196, 200, 202, 204, 206, 210, 211, 213, 215, 219, 221, 223, 225, 227, 229, 231, 233, 235, 237, 239, 241, 243, 245, 246, 248, 250, 252, 253, 254, 255, 280, 281, 283, 284, 285, 286, 287, 288, 295, 296, 297, 298, 299, 300, 301, 302, 303, 304, 305, 306, 307, 308, 309, 311, 312, 314, 343, 348, 349, 350, 351, 352, 353, 354, 355, 356, 357, 358, 359, 360, 366, 367, 368, 369, 370, 375, 377, 378, 380, 381, 382, 383, 384, 385, 386, 391, 392, 393, 394, 395, 396, 397, 398, 400, 401, 402, 403, 404, 462}, {384, 130, 132, 261, 136, 265, 267, 269, 143, 144, 273, 403, 148, 404, 152, 280, 154, 155, 156, 157, 281, 159, 283, 285, 162, 289, 290, 37, 43, 45, 176, 49, 177, 178, 52, 179, 309, 310, 204, 207, 210, 211, 338, 213, 86, 87, 214, 217, 90, 91, 92, 220, 221, 343, 96, 97, 225, 227, 228, 229, 230, 352, 355, 356, 358, 359, 361, 362, 365, 371, 245, 375, 377, 379, 252, 383}, {}, {386, 140, 14, 271, 272, 401, 146, 403, 23, 279, 155, 156, 285, 168, 46, 51, 60, 67, 70, 456, 457, 86, 89, 91, 94, 95, 224, 354, 361, 235, 236, 373, 378, 382, 383}, {36, 37, 38, 39, 41, 42, 43, 44, 45, 46, 47, 90, 91, 93, 94, 95, 96, 97, 102, 103, 104, 105, 107, 108, 109, 111, 112, 113, 114, 115, 117, 118, 120, 121, 122, 123, 124, 126, 127, 128, 129, 130, 131, 132, 133, 134, 135, 136, 137, 138, 139, 141, 142, 143, 145, 146, 148, 149, 151, 152, 153, 154, 156, 159, 160, 161, 163, 164, 165, 167, 168, 169, 171, 172, 173, 174, 175, 176, 177, 178, 208, 211, 212, 213, 246, 247, 248, 250, 253, 255, 282, 284, 285, 286, 287, 296, 297, 298, 299, 300, 301, 302, 303, 304, 305, 306, 307, 308, 309, 310, 311, 313, 342, 343, 348, 349, 350, 354, 355, 356, 358, 359, 360, 362, 367, 368, 369, 371, 372, 375, 376, 377, 379, 381, 383, 385, 387, 392, 395, 397, 399, 400, 402, 403, 404, 455}, {36, 37, 38, 39, 40, 41, 42, 43, 44, 45, 92, 93, 94, 95, 96, 97, 101, 103, 104, 105, 106, 107, 108, 109, 111, 112, 113, 114, 115, 116, 117, 118, 119, 120, 121, 132, 133, 134, 135, 136, 137, 138, 139, 140, 141, 143, 144, 145, 146, 147, 148, 149, 150, 151, 152, 153, 154, 155, 156, 157, 158, 159, 160, 161, 163, 164, 165, 170, 171, 172, 173, 174, 175, 176, 177, 178, 179, 180, 181, 182, 183, 209, 210, 211, 212, 241, 242, 243, 244, 245, 246, 247, 248, 249, 252, 253, 283, 284, 286, 287, 288, 292, 293, 294, 296, 297, 298, 299, 300, 301, 302, 303, 304, 305, 306, 307, 308, 310, 311, 312, 343, 350, 351, 352, 353, 355, 356, 357, 358, 359, 360, 361, 372, 373, 374, 388, 389, 391, 393, 394, 395, 396, 399, 400, 401, 402, 403, 404, 455, 462}, {400, 273, 405, 150, 151, 152, 409, 413, 415, 421, 303, 306, 307, 311, 314, 315, 316, 319, 320, 195, 196, 197, 198, 219, 220, 359, 360, 370, 118, 119, 376}, {454, 424, 426, 428, 430, 432}, {}, {131, 168, 169, 296, 45, 430, 177, 53, 183, 56, 314, 186, 196, 197, 454, 456, 206, 341, 471, 347, 352, 354, 101, 115, 116}, {36, 37, 72, 73, 74, 75, 76, 77, 78, 79, 80, 81, 82, 83, 85, 86, 87, 88, 89, 91, 92, 93, 94, 95, 96, 97, 110, 111, 112, 113, 114, 115, 117, 118, 119, 120, 121, 122, 124, 125, 126, 127, 128, 129, 130, 131, 132, 133, 135, 139, 140, 150, 151, 152, 153, 154, 155, 156, 157, 158, 160, 161, 162, 164, 165, 166, 168, 169, 170, 171, 172, 173, 190, 191, 192, 193, 194, 195, 196, 197, 198, 200, 201, 202, 203, 204, 206, 207, 208, 209, 210, 219, 220, 221, 222, 223, 224, 225, 226, 227, 228, 229, 231, 232, 233, 234, 235, 236, 237, 238, 252, 253, 254, 255, 256, 257, 259, 260, 274, 275, 276, 277, 278, 279, 280, 281, 282, 283, 284, 285, 286, 299, 300, 301, 302, 303, 304, 305, 306, 307, 308, 309, 310, 311, 312, 313, 315, 316, 318, 319, 320, 322, 323, 324, 338, 339, 340, 341, 343, 348, 350, 351, 352, 353, 354, 355, 356, 357, 358, 359, 361, 362, 363, 368, 369, 370, 376, 377, 378, 379, 380, 382, 383, 385, 386, 393, 394, 395, 396, 397, 399, 400, 401, 402, 403, 404, 405, 406, 407, 409, 410, 411, 412, 413, 414, 415, 416, 417, 418, 419, 420, 421, 428, 429, 430, 431, 432, 440, 441, 442, 443, 452, 456, 460, 462, 463, 468, 469, 470, 471, 472, 473}, {161, 166, 396, 141, 175, 370, 122}, {456, 457, 458, 459, 461, 16, 17, 18, 19, 21, 440, 441, 442, 475}, {36, 37, 38, 39, 40, 42, 43, 44, 45, 47, 48, 49, 83, 86, 87, 90, 92, 93, 94, 95, 96, 97, 100, 101, 102, 103, 104, 105, 106, 107, 108, 109, 110, 111, 114, 115, 116, 117, 119, 121, 122, 123, 124, 125, 126, 128, 130, 131, 132, 134, 135, 137, 138, 139, 140, 141, 142, 143, 150, 152, 153, 154, 155, 156, 157, 158, 159, 160, 161, 162, 165, 167, 170, 171, 172, 173, 175, 176, 177, 179, 180, 182, 183, 184, 185, 186, 187, 188, 190, 192, 194, 196, 197, 198, 199, 200, 201, 202, 203, 204, 205, 207, 208, 209, 210, 217, 219, 220, 221, 222, 223, 224, 225, 227, 229, 230, 231, 232, 235, 236, 237, 239, 241, 242, 243, 244, 245, 246, 247, 250, 251, 253, 257, 258, 271, 272, 273, 274, 275, 277, 278, 280, 281, 282, 283, 285, 286, 287, 288, 295, 296, 299, 300, 301, 302, 303, 305, 306, 307, 309, 311, 312, 314, 341, 342, 343, 350, 351, 353, 354, 355, 357, 358, 359, 360, 361, 363, 364, 367, 369, 370, 377, 378, 379, 380, 382, 383, 384, 385, 386, 387, 388, 391, 392, 393, 395, 398, 399, 400, 402, 404, 440, 441, 461, 462, 469, 470, 471, 473}, {433, 465, 444, 28, 29, 30, 31}, {256, 130, 131, 132, 262, 135, 264, 139, 267, 141, 268, 398, 272, 273, 147, 152, 153, 409, 155, 37, 338, 39, 40, 426, 44, 45, 49, 341, 309, 54, 310, 56, 342, 343, 206, 336, 81, 82, 83, 210, 85, 86, 212, 88, 213, 215, 91, 92, 216, 217, 219, 220, 222, 356, 358, 359, 363, 364, 371, 378, 379, 380}, {65, 63}, {66, 67}, {103, 104, 395, 463, 116, 312, 249, 250}, {259, 260, 134, 262, 383, 138, 396, 400, 401, 147, 149, 152, 155, 411, 159, 419, 297, 300, 45, 46, 303, 307, 52, 309, 315, 190, 192, 195, 201, 203, 205, 462, 207, 208, 209, 88, 90, 91, 218, 95, 96, 223, 225, 226, 354, 355, 356, 357, 107, 365, 371, 116, 118, 121, 379, 124, 126, 255}, {433, 434, 466, 474, 29, 30, 31}, {3, 6, 7, 8, 9, 11, 13, 14, 15, 16, 18, 21, 22, 25, 26, 28, 102, 104, 105, 106, 162, 164, 165, 169, 171, 172, 175, 176, 179, 180, 181, 182, 183, 184, 185, 186, 187, 230, 232, 233, 235, 236, 237, 238, 239, 240, 241, 242, 245, 247, 250, 251, 281, 282, 284, 285, 286, 288, 289, 290, 292, 294, 295, 296, 345, 346, 347, 348, 350, 387, 435, 440, 441, 442, 444, 445, 456, 457, 461, 462, 468}, {36, 37, 38, 41, 42, 43, 44, 45, 48, 50, 51, 79, 80, 84, 85, 88, 90, 94, 95, 97, 112, 114, 115, 119, 121, 122, 123, 124, 126, 129, 131, 132, 133, 134, 135, 137, 138, 139, 140, 141, 142, 143, 147, 148, 150, 151, 152, 153, 155, 156, 157, 192, 193, 195, 196, 197, 199, 200, 201, 202, 203, 205, 206, 208, 209, 211, 213, 215, 216, 217, 218, 219, 220, 222, 223, 224, 252, 254, 255, 256, 271, 273, 274, 275, 277, 301, 302, 304, 306, 309, 310, 311, 313, 314, 316, 318, 319, 320, 339, 342, 355, 358, 360, 361, 362, 365, 371, 373, 374, 375, 376, 377, 379, 381, 395, 396, 397, 398, 400, 401, 402, 407, 408, 409, 410, 411, 412, 414, 416, 418, 439, 450, 451, 455}, {36, 37, 38, 39, 40, 41, 42, 43, 94, 95, 100, 101, 102, 103, 104, 106, 107, 108, 109, 111, 112, 114, 117, 118, 119, 120, 122, 123, 139, 141, 144, 145, 147, 148, 150, 154, 155, 156, 157, 158, 160, 161, 163, 164, 166, 167, 168, 169, 173, 174, 175, 176, 177, 178, 181, 183, 210, 245, 246, 247, 252, 254, 255, 285, 286, 295, 296, 297, 298, 300, 301, 303, 304, 305, 307, 308, 309, 310, 343, 353, 354, 355, 356, 357, 358, 359, 360, 462}, {475, 22, 23}, {33, 7, 8, 465, 434, 435, 436, 29, 30, 445}];
areas = [138825.00637471865, 292136.67098450556, 13907.761537089322, 4968765.120002973, 5023587.397661378, 46056381.36214388, 2125430.6500532753, 7980972.8631170755, 34522857.55948143, 8096848.164284163, 17297.110347103473, 35853469.15339274, 6251937.070964603, 115444477.51669087, 126209873.99235375, 24442285.28733057, 7860730.226554784, 4727504.553809522, 70389455.23093694, 7934899.895259789, 225123.98418459276, 441518.8284143895, 5451518.703761987, 4005607.4421669464, 1572114.7455518881, 908134.8707489271, 1806044.6495565316, 437640.6206666993, 142.38392243659285, 7008237.889580719, 342011.6844025809, 54802.789359683615, 10055.763680383352, 94755.92693923878, 8415.813364203375, 35063.680408363936, 524591.4287948018, 684440.4472150526, 4153278.302838438, 3191449.71759793, 5290844.62632267, 42588667.115146324, 138242576.82136136, 53760778.598655075, 296987649.5391096, 602600.400724995, 39750663.91636757, 83047792.45289046, 144554593.1820156, 5349.551317953386, 7117732.225923182, 7699015.913758572, 3067199.864181306, 3979578.724879419, 2905795.8045370006, 126976.22008635427, 55241.30154388578, 1263898.0778059897, 2352768.256645385, 593260.7852335938, 199484.82564073894, 226679.48709830106, 5269916.322963276, 34412885.04487368, 1918635.6781667452, 24255.306266632655, 1416.8902135569758, 46553.742434386484, 16359.129220991856, 9935.736254452193, 2436.6592467701353, 751913.6272920559, 42028.01031202574, 2546.53905027487, 97592.77335962669, 8352.601187097227, 20871.676348770077, 53573.8592799262, 1182720.7099107997, 507638.17835982074, 335400.50313740235, 1216472.475510469, 7371234.744624378, 3729.4095415589154, 8856727.739023514, 7861.494861275531, 1521324.089736394, 11502.165351710802, 36202.67199604429, 51.214719179249315, 20936.626767176498, 3278.7497487196756, 33349.57944883313, 114146.58333347834, 38622.99099329819, 646.5011114322959, 2605543.4478289494, 1791366.1955652721, 1783917.8853836632, 3512940.175682874, 484.3785792850867, 2460.490505193897, 358362.2278264903, 396.64910666836977, 590.756989324313, 3839.9287402983855, 32012.07324797813, 11696.655603517891, 5269.717544841706, 74813.60019589248, 16242.44069901183, 30622.211084473267, 194091.58523925822, 95830.72776023758, 2906.247776227983, 1218.2751079137188, 12583.996837883848, 69858.71631987947, 254954.85911341157, 31300.578475140424, 252.94574524884885, 55.169774069390414, 8431.033323577394, 10351.492967805849, 11745694.16257296, 2104135.0887748525, 2120018.651359922, 1873441.9831147506, 785717.7122937994, 1061987.2631257812, 2626639.97405007, 513709.6900067228, 17845.481124051963, 2549.0493490717536, 822303.5489856964, 1051528.8160332313, 319532.93891272764, 10596677.819595113, 75397.37929244396, 39281.19508438298, 9522.782517549207, 6555330.482718075, 105009.77104366157, 14314.85416102977, 6074223.150674089, 1014657.5487527858, 159999.24554516134, 29748.67926462122, 4955541.171819354, 15766548.96430584, 9843525.566773439, 734188.6337688039, 986040.8291996581, 236042.46210127452, 20299040.50251115, 123138.7090350822, 33346749.938618314, 1375662.046640797, 1524241.501808872, 268246.6313484054, 2601112.935847499, 476668.402477227, 13932479.996603098, 2492018.3836738737, 111990831.83503285, 35063986.89390499, 59875845.136080295, 1321652.331291992, 547976.923108361, 1981826.3918845928, 3478849.079360503, 3984554.1977301016, 32870326.553661242, 3640769.3141488987, 19846320.93951714, 20826963.79239203, 396500.9140976301, 6204307.201062761, 201970.66656794646, 47406.707064785915, 15192.002177644838, 17319.2038613318, 14709.763817018673, 115838.3521822458, 39184.6198076755, 16538.88759690879, 214122.77461973135, 41159.338883345314, 73825.00212077104, 385513.185015049, 155850.71806748892, 4798.529522446823, 606416.106723274, 53279.21163563536, 305197.9695765409, 1315801.3459373668, 52303.82107560702, 441.3510819363614, 519032.77514600556, 93299.0631697534, 90969.21200135465, 80655.55413741875, 29167.448915061083, 51362.32645943755, 112050.50821753414, 23029.379779705618, 18318.462533288057, 19172.980534537994, 13846.102536718476, 69100.87154518347, 93762.59860471377, 89890.48950783229, 139115.91722624603, 1703772.6047911, 661970.8803108985, 127660.9319610361, 3118635.427179902, 584597.9402075582, 1086862.6797081674, 5851716.885324898, 2672305.1477529625, 8618.917090486199, 37618.13932694846, 15474.954534847482, 6529347.749620591, 550852.6027522092, 507423.2192371799, 152667.97655741152, 375538.89726644324, 750807.4301167235, 330356.2306870362, 584966.6535379464, 403879.19966588943, 501148.8518727739, 372766.9242414261, 146050.010766314, 52261.913790842285, 6123.320390139122, 10174.731474469663, 45890.20713846749, 682913.6558424025, 344048.6503826727, 328052.66496607615, 86943.41781118889, 17757.17378318773, 29294.915074679277, 264197.7641384347, 353918.6783428793, 62203.45937551918, 1307294.821284152, 250295.76824033566, 328208.940551474, 337974.8526531932, 272.5199196881194, 93188.68237157007, 397422.6198926688, 139231.13194469182, 49682.961983456444, 728054.8021390403, 138550.988168255, 1450562.3771966994, 273378.14456563204, 579880.6673694241, 268306.2078155086, 554417.5999957634, 241259.3831219517, 492899.7626110409, 84681.32301653324, 160604.11876716322, 159715.1260127924, 334309.3607180983, 49191.19924308901, 84350.02688564447, 29677.486801831074, 12055.322228439796, 168718.93142237412, 33880.52693591926, 157168.84906787187, 438943.3654564835, 76099.30765575435, 73150.42241970988, 64149.159145465164, 22753.06063004365, 40642.93200412793, 623.3327404107574, 18690.51835878868, 9507.081765303363, 67033.22578531984, 147225.70297370164, 269909.50347555685, 6215.963709541404, 110831.15174678314, 74558.32657559923, 1098.3005314480472, 1556.7366744442065, 1801.3586800173052, 93171.08858095971, 77543.28506970282, 2645249.8458264386, 549988.3881480226, 36300.48871565158, 3079635.2508957325, 372379.648477347, 317253.44406869996, 82944.28450225826, 281893.3840505609, 477606.23083455686, 717958.7107844306, 2134267.8102777004, 544715.817203221, 122935.85606394871, 520411.50695334905, 285261.4284996495, 56410.21402875177, 54084.84565406351, 82314.58695571916, 116814.77560879056, 57850.365092869186, 20073.570375745716, 6528.289196154905, 40119.01461768086, 246050.6686538761, 56916.17570514348, 23545.405882221785, 5701.263952381971, 3433.635460986382, 25571.081557321206, 115966.68857137239, 2574734.813043995, 1384851.9038362494, 157112.08132126342, 26163.73194157663, 6947300.060772525, 7355629.298203335, 8302015.639705787, 7554577.367366634, 7208358.805709508, 22433860.16844694, 12358987.44188636, 24354001.364065997, 27611471.74239132, 83005392.6472614, 126713492.07644129, 18059047.060165994, 31091903.758867256, 233035208.4542732, 39907877.579524145, 31418303.92500069, 9614769.1836575, 3289437.5134501117, 3369757.3923502024, 180508049.16927445, 80372660.15569568, 21416591.014805913, 5313383.635910041, 3328547.612187487, 8279845.92887542, 3503994.2040788326, 2134380.793207213, 5063168.0467936, 3110399.1007672725, 18414633.636969633, 263515.5210724466, 160063.199812628, 9422032.971148571, 590949.5444231951, 1457819.3104997864, 1473908.3035848502, 585734.999028917, 1351738.4123645297, 336402.3854513357, 3130956.5628927075, 1591245.2682011472, 27673401.697854683, 1654106.6799090952, 1444059.4236849914, 2253291.531093501, 13078589.273145828, 223501073.19269165, 145600415.06595746, 442563.0593208832, 482316.1996818142, 301049.8648811977, 11354.357120748406, 762559.7215058784, 1643351.7399371783, 2169680.649751433, 291911.92135154747, 31842.54951172763, 26292.352572424497, 24528.388640944657, 338975190.3887514, 1096180.4377095243, 296177.51539105515, 10962450.254195327, 15733895.34431289, 13332575.398289524, 4897207.83968549, 9418302.40561657, 1413189.207549773, 3244.9567909894067, 1048160.5508861083, 419474.3639547997, 315305.4022742546, 1430019.5165275757, 400628.9365450863, 9.436661989514286, 1761552.164242945, 22746287.556596033, 3687153.4481073655, 188561.69966928664, 3484657.6843313924, 2345.681312190714, 1675.0518130857133, 8259.423014402097, 3247.7086755708015, 8498.717284996424, 132192.4906433479, 38588.50843645776, 17178.344825239197, 5561.80248197763, 13693.553097424729, 229038.68689185887, 444530.345303005, 1412975.1059239006, 1292805.451015914, 4076171.5614402792, 2889915.1759363273, 716718.6503276947, 610956.3984252025, 1631016.849113876, 24600752.77815928, 14014759.400784524, 549393.7379382693, 418569.42714031413, 5457889.7170045255, 136603.9144467207, 633894.3348463355, 277498.76246440155, 13974.355658599989, 1215181.9017468225, 1388577.3934778317, 9466721.243105514, 28635905.70775308, 4484600.028019941, 4073419.2374319723, 3496672.3526890706, 9997382.749923762, 2783855.365287362, 2031657.8519380395, 46721.758007835786, 2441112.9880039515, 2224101.0500080623, 1037468.5406071211, 900257.50711348, 99405.14597311647, 278018.1657506262, 620.5118549933691, 3332745.088509315, 4788457.94144833, 3245617.4880946185, 7210665.665325004, 217685.82283457264, 29242228.846073877, 9158606.228287304, 20707538.893491574, 591608.8064735278, 1155560.1190527116, 27641069.44066883, 59559.13385420172, 237780774.193795, 564816551.1014025, 3803372.9584400808, 5469178.197217412, 62633.840004662845];
max_cloud_area = 1480038297.0339608;
